c Lingeling SAT Solver
c 
c Version azf 92032848c138b2f33629ad24394d60a3787a1046
c 
c Copyright (C) 2010-2014 Armin Biere JKU Linz Austria.
c All rights reserved.
c 
c released Don Mai 22 22:08:00 CEST 2014
c compiled Mon Oct  6 05:55:43 PDT 2014
c 
c gcc (Ubuntu 4.8.2-19ubuntu1) 4.8.2
c -Wall -O3 -DNDBLSCR -DNLGLOG -DNDEBUG -DNCHKSOL -DNLGLPICOSAT -DNLGLDRUPLIG
c -DNLGLYALSAT
c Linux ubuntu 3.13.0-32-generic x86_64
c 
c reading input file benchmark-sat/translations/gc-mulsol.i.4-20.cnf
c no embedded options
c found 'p cnf 3700 114255' header
c read 3700 variables, 114255 clauses, 231840 literals in 0.00 seconds
c 
c  seconds         irredundant          redundant clauses agility   height
c          variables clauses conflicts large ternary binary    glue         MB
c 
c S    0.0    3700   114255         0       0      0     0   0  0.0   0.0    2
c P    1.0    3349    78944      1001     918      0 30381   6 20.0 348.3    5
c P    2.0    3349    78944      1001     918      0 30381   6 20.0 348.3    5
c P    5.0    3325    78920      3001    2162      0 29925   6 20.3 195.6    5
c S   10.0    3325    78920     66743    8960      0 29925   6 24.5  84.9   11
c S   20.0    3325    78920    213364   25981      0 29925   5 28.2  80.9   24
c S   30.0    3325    78920    353545   27647      0 29925   4 30.8  81.2   22
c S   40.0    3325    78920    490520   36720      0 29925   5 31.1  80.7   28
c P   50.0    3325    78920    623004   38393      0 29925   5 33.7  81.7   21
c S   60.0    3325    78920    744893   24794      0 29925   5 34.0  82.0   26
c S  120.0    3325    78920   1469472   41191      0 29925   5 35.1  83.8   44
c S  180.0    3325    78920   2073836   41125      0 29925   3 37.1  85.9   47
c S  240.0    3325    78920   2643868   67318      0 29925   4 40.3  88.0   71
c S  300.0    3325    78920   3066725   72639      0 29925   4 41.8  89.3   65
c S  600.0    3325    78920   4858380   86781      0 29925   3 46.9  93.6   61
c S  900.1    3325    78920   6572778   90386      0 29925   3 53.5  96.9   77
